# IL (CL&P), water (SWM4-NDP) equilibration using fix/rigid for water

units           real
boundary        p p p
neighbor        2.0 bin
neigh_modify    every 1 delay 0 check yes

atom_style      full
bond_style      harmonic
angle_style     harmonic
dihedral_style  opls
improper_style  cvff

pair_style      hybrid/overlay lj/cut/coul/long 12 12 coul/long/cs 12.0 thole 2.6 12.0 coul/tt 4 12.0
pair_modify     tail yes
kspace_style    pppm 1e-5
special_bonds   lj/coul 0.0 0.0 0.5

read_data ../pdata.lmp extra/special/per/atom 3 
include ../pair-drude.lmp

group ATOMS type 1 2 3 4 5 6 7 8 9 10 11 12 13 14 15 16 17 18
group CORES type 2 3 4 6 8 9 10 11 12 14 16
group DRUDES type 19 20 21 22 23 24 25 26 27 28 29
group WATER type 16 17 18
group IL     subtract ATOMS WATER

fix DRUDE all drude N C C C N C N C C C C C N C N C N N D D D D D D D D D D D
fix ICECUBE all momentum 100 linear 1 1 1
fix SHAKE ATOMS shake 0.0001 20 0 b 1 5 10 11
comm_modify vel yes

variable TK equal 298
variable TDK equal 1
variable PBAR equal 1
variable DUMP equal 1000

velocity        ATOMS create ${TK} ${TK} dist gaussian
velocity        DRUDES create ${TDK} ${TDK} dist gaussian

compute TATOMS ATOMS temp
fix DIRECT all drude/transform/direct
fix RIG WATER rigid/nvt/small molecule temp ${TK} ${TK} 100 dilate all 
fix_modify RIG temp TATOMS
fix fIL IL nvt temp ${TK} ${TK} 100 
fix_modify fIL temp TATOMS
fix NVT DRUDES nvt temp ${TDK} ${TDK} 20
fix INVERSE all drude/transform/inverse
compute TDRUDE all temp/drude

timestep        1
restart         ${DUMP} IL.restart1 IL.restart2
dump d1 ATOMS   custom ${DUMP} traj.lmp element xu yu zu
dump_modify d1 element H C N C H C H O P O O O H O H O H M D D D D D D D D D D D
dump_modify d1  sort id

variable    V equal vol
variable    dt equal 1
variable    p equal 100     # correlation length
variable    s equal 10      # sample interval
variable    d equal $p*$s   # dump interval
# convert from LAMMPS real units to SI
variable    kB equal 1.3806504e-23    # [J/K] Boltzmann
variable    atm2Pa equal 101325.0
variable    A2m equal 1.0e-10
variable    fs2s equal 1.0e-15
variable    convert equal ${atm2Pa}*${atm2Pa}*${fs2s}*${A2m}*${A2m}*${A2m}
variable     pxy equal pxy
variable     pxz equal pxz
variable     pyz equal pyz
fix          SS all ave/correlate $s $p $d &
             v_pxy v_pxz v_pyz type auto file S0St.dat ave running
variable     scale equal ${convert}/(${kB}*${TK})*$V*$s*${dt}
variable     v11 equal trap(f_SS[3])*${scale}
variable     v22 equal trap(f_SS[4])*${scale}
variable     v33 equal trap(f_SS[5])*${scale}
thermo_style custom step c_TDRUDE[1] c_TDRUDE[2] press v_pxy v_pxz v_pyz v_v11 v_v22 v_v33
thermo 1000

run             10000000
variable     v equal (v_v11+v_v22+v_v33)/3.0
variable     ndens equal count(all)/vol
print        "average viscosity: $v [Pa.s] @ $T K, ${ndens} /A^3"

