# IL (CL&P), water (SWM4-NDP) equilibration using fix/rigid for water

units           real
boundary        p p p
neighbor        2.0 bin
neigh_modify    every 1 delay 0 check yes

atom_style      full
bond_style      harmonic
angle_style     harmonic
dihedral_style  opls
improper_style  cvff

pair_style      hybrid/overlay lj/cut/coul/long 12 12 coul/long/cs 12.0 thole 2.6 12.0 coul/tt 4 12.0
pair_modify     tail yes
kspace_style    pppm 1e-5
special_bonds   lj/coul 0.0 0.0 0.5

read_data pdata.lmp extra/special/per/atom 3 
include pair-drude.lmp

group ATOMS type 1 2 3 4 5 6 7 8 9 10 11 12 13 14
group CORES type 2 3 4 6 8 9 10 11 12
group DRUDES type 15 16 17 18 19 20 21 22 23
group WATER type 12 13 14
group IL     subtract ATOMS WATER

fix DRUDE all drude N C C C N C N C C C C C N N D D D D D D D D D
fix ICECUBE all momentum 100 linear 1 1 1
fix SHAKE ATOMS shake 0.0001 20 0 b 1 5
comm_modify vel yes

variable TK equal 298
variable TDK equal 1
variable PBAR equal 1
variable DUMP equal 100

velocity        ATOMS create ${TK} ${TK} dist gaussian
velocity        DRUDES create ${TDK} ${TDK} dist gaussian

variable elec equal ecoul+elong

# Viscosity - NEMD
variable A equal 0.02e-5 # Å/fs²

# apply a shear deformation, and modify atom temperature at each timestep accordingly
fix cos all accelerate/cos ${A}
compute cos all viscosity/cos

compute TATOMS ATOMS temp
fix DIRECT all drude/transform/direct
fix RIG WATER rigid/nvt/small molecule temp ${TK} ${TK} 100 dilate all 
fix_modify RIG temp cos
fix fIL IL nvt temp ${TK} ${TK} 100 
fix_modify fIL temp cos
fix NVT DRUDES nvt temp ${TDK} ${TDK} 20
fix INVERSE all drude/transform/inverse
compute TDRUDE all temp/drude

variable density equal density
variable lz equal lz
variable vMax equal c_cos[7]
variable invVis equal v_vMax/${A}/v_density*39.4784/v_lz/v_lz*100 # reciprocal of viscosity 1/Pa/s

thermo_style custom step cpu etotal c_TDRUDE[1] c_TDRUDE[2] press pe evdwl v_elec density v_vMax v_invVis
thermo 100

timestep        1
restart         ${DUMP} IL.restart1 IL.restart2
dump d1 ATOMS   custom ${DUMP} traj.lmp element xu yu zu
dump_modify d1 element H C N C H C H O O C C O H M D D D D D D D D D
dump_modify d1  sort id
run             10000000

write_data output.data
