# basic input

units           real
boundary        p p p
neighbor        2.0 bin
neigh_modify    every 1 delay 0 check yes

atom_style      full
bond_style      harmonic
angle_style     harmonic
dihedral_style  opls
improper_style  cvff

pair_style hybrid/overlay lj/cut/coul/long 12 12 coul/long/cs 12.0 thole 2.6 12.0 coul/tt 4 12.0
pair_modify     tail yes
kspace_style    pppm 1e-5
special_bonds   lj/coul 0.0 0.0 0.5

read_data ../output.data extra/special/per/atom 3 
include ../pair-drude.lmp 

group ATOMS type 1 2 3 4 5 6 7 8 9 10 11 12 13 14 15
group CORES type 2 3 4 6 8 9 10 11 12 14
group DRUDES type 16 17 18 19 20 21 22 23 24 25

fix DRUDE all drude N C C C N C N C C C C C N C N D D D D D D D D D D
fix SHAKE ATOMS shake 0.0001 20 0 b 1 5 10 11

variable        T equal 298
# if using a restart file, delete the next two lines
velocity        ATOMS create ${T} ${T} dist gaussian
velocity        DRUDES create 1 1 dist gaussian

timestep        1.0

comm_modify vel yes

variable elec equal ecoul+elong

# Viscosity - NEMD
variable A equal 0.02e-5 # Å/fs²

fix cos all accelerate/cos ${A}
compute cos all viscosity/cos

variable density equal density
variable lz equal lz
variable vMax equal c_cos[7]
variable invVis equal v_vMax/${A}/v_density*39.4784/v_lz/v_lz*100 # reciprocal of viscosity 1/Pa/s

fix DIRECT all drude/transform/direct                  
fix NVTA ATOMS nvt temp ${T} ${T} 100
fix NVTD DRUDES nvt temp 1. 1. 20
fix_modify NVTA temp cos
fix INVERSE all drude/transform/inverse                
fix MOM all momentum 100 linear 1 1 1
compute TDRUDE all temp/drude 

thermo_style custom step cpu etotal c_TDRUDE[1] c_TDRUDE[2] press pe evdwl v_elec density v_vMax v_invVis
thermo 100

restart         10000 IL.restart1 IL.restart2
dump d1 ATOMS  custom 10000 traj.lmp element xu yu zu
dump_modify d1 element H C N C H C H O P O O O H O H D D D D D D D D D D
dump_modify d1  sort id
run             10000000
